# Solution for model GasLib-40
# Objective value = 1.4045211663873092e+01
loadshed[innode_1] 0
loadshed[innode_2] 0
loadshed[innode_3] 0
loadshed[innode_4] 0
loadshed[innode_5] 0
loadshed[innode_6] 0
loadshed[innode_7] 0
loadshed[innode_8] 0
loadshed[source_1] -3.0878860962017352e-01
loadshed[source_2] 9.7524777609084734e-02
loadshed[source_3] 3.0010681376353376e-01
loadshed[sink_1] 0
loadshed[sink_2] 0
loadshed[sink_3] 0
loadshed[sink_4] 0
loadshed[sink_5] 0
loadshed[sink_6] 0
loadshed[sink_7] 0
loadshed[sink_8] 0
loadshed[sink_9] 0
loadshed[sink_10] 0
loadshed[sink_11] 0
loadshed[sink_12] 8.5881549027504245e-01
loadshed[sink_13] 0
loadshed[sink_14] 0
loadshed[sink_15] 0
loadshed[sink_16] 0
loadshed[sink_17] 0
loadshed[sink_18] 0
loadshed[sink_19] 0
loadshed[sink_20] 0
loadshed[sink_21] 0
loadshed[sink_22] 0
loadshed[sink_23] 0
loadshed[sink_24] 0
loadshed[sink_25] 0
loadshed[sink_26] 0
loadshed[sink_27] 0
loadshed[sink_28] 0
loadshed[sink_29] 0
flow[source_1,sink_3] 2.0690675484724477e+02
flow[innode_1,sink_16] 1.6354166666666970e+01
flow[innode_6,sink_13] 3.8328584397708383e+00
flow[sink_13,sink_14] -1.2521308226895830e+01
flow[sink_14,sink_10] -2.8875474893562568e+01
flow[sink_25,sink_26] 2.3126728833612711e+02
flow[sink_26,sink_9] 1.3019218944944382e+02
flow[sink_9,sink_18] 1.1383802278277714e+02
flow[sink_26,sink_4] 8.4720932220016579e+01
flow[sink_4,sink_20] 2.2769775041582950e+01
flow[sink_18,sink_6] 9.7483856116110474e+01
flow[sink_25,innode_8] -1.7419842151390839e+02
flow[sink_6,sink_7] 4.8421356116110019e+01
flow[sink_6,sink_22] 3.2708333333333641e+01
flow[sink_7,sink_24] 3.5017288336126917e+01
flow[sink_22,sink_1] 1.6354166666666970e+01
flow[sink_24,sink_21] 1.8663121669460246e+01
flow[sink_21,sink_12] 2.3089550027935775e+00
flow[sink_7,sink_5] -2.9500988866834490e+00
flow[sink_5,sink_17] -1.9304265553350092e+01
flow[sink_17,sink_4] -4.5596990511766968e+01
flow[sink_17,sink_8] 9.9385582917503577e+00
flow[sink_3,sink_23] 16.3541666666697
flow[sink_8,sink_20] -6.4156083749161326e+00
flow[sink_25,sink_20] 0
flow[sink_25,sink_15] -7.7255891928656936e+01
flow[sink_15,sink_29] -1.0996422526200786e+02
flow[sink_29,sink_28] 1.6354166666667879e+01
flow[sink_29,sink_2] 0
flow[sink_2,sink_15] -1.6354166666684250e+01
flow[sink_29,innode_7] -1.4267255859534157e+02
flow[innode_4,sink_19] 4.2536300039035268e+01
flow[sink_19,innode_3] 7.7937974893563066e+01
flow[innode_4,innode_5] 6.8110008187861638e+01
flow[sink_27,innode_5] -6.8110008187861638e+01
flow[sink_27,sink_19] 5.1755841521194967e+01
flow[sink_10,sink_11] 3.2708333333333641e+01
flow[sink_10,innode_2] 0
flow[sink_10,innode_3] -7.7937974893563066e+01
flow[innode_6,sink_25] -3.8328584397708383e+00
flow[sink_11,innode_1] 1.6354166666666970e+01
flow[sink_19,innode_2] 0
flow[source_3,innode_4] 1.1064630822689691e+02
flow[source_2,innode_7] 1.4267255859534157e+02
flow[sink_3,innode_8] 1.7419842151390839e+02
pressure[innode_1] 7.4816287231002377e+01
pressure[innode_2] 7.4967988538605923e+01
pressure[innode_3] 7.9117411282424911e+01
pressure[innode_4] 81.01325
pressure[innode_5] 8.0966400344916536e+01
pressure[innode_6] 7.3600941081919629e+01
pressure[innode_7] 81.01325
pressure[innode_8] 8.0321639759790941e+01
pressure[source_1] 81.01325
pressure[source_2] 81.01325
pressure[source_3] 81.01325
pressure[sink_1] 4.0697397448600782e+01
pressure[sink_2] 7.3922314687835112e+01
pressure[sink_3] 8.0321639759790941e+01
pressure[sink_4] 4.6541283190138884e+01
pressure[sink_5] 4.3360688315722392e+01
pressure[sink_6] 4.2798475058988153e+01
pressure[sink_7] 4.2133765258558114e+01
pressure[sink_8] 4.4423708940120527e+01
pressure[sink_9] 4.9520583224812427e+01
pressure[sink_10] 7.4967988538605923e+01
pressure[sink_11] 7.4816287231002377e+01
pressure[sink_12] 1.01325
pressure[sink_13] 7.3579811173871320e+01
pressure[sink_14] 7.3602219121522964e+01
pressure[sink_15] 7.3975707437601557e+01
pressure[sink_16] 73.7946373961847
pressure[sink_17] 4.4798716564207794e+01
pressure[sink_18] 4.5401584264871339e+01
pressure[sink_19] 7.9289996102308450e+01
pressure[sink_20] 4.4870786619412712e+01
pressure[sink_21] 1.8349025595934947e+00
pressure[sink_22] 4.1761166590955789e+01
pressure[sink_23] 8.0156921748131154e+01
pressure[sink_24] 2.0415792919747142e+00
pressure[sink_25] 7.3600941081919629e+01
pressure[sink_26] 5.7312921780152870e+01
pressure[sink_27] 8.0401213130720109e+01
pressure[sink_28] 7.6902035703063589e+01
pressure[sink_29] 7.7197317976680765e+01
interdiction[source_1,sink_3] 0
interdiction[innode_1,sink_16] 0
interdiction[innode_6,sink_13] 0
interdiction[sink_13,sink_14] 0
interdiction[sink_14,sink_10] 0
interdiction[sink_25,sink_26] 0
interdiction[sink_26,sink_9] 0
interdiction[sink_9,sink_18] 0
interdiction[sink_26,sink_4] 0
interdiction[sink_4,sink_20] 0
interdiction[sink_18,sink_6] 0
interdiction[sink_25,innode_8] 0
interdiction[sink_6,sink_7] 0
interdiction[sink_6,sink_22] 0
interdiction[sink_7,sink_24] 0
interdiction[sink_22,sink_1] 0
interdiction[sink_24,sink_21] 0
interdiction[sink_21,sink_12] 0
interdiction[sink_7,sink_5] 0
interdiction[sink_5,sink_17] 0
interdiction[sink_17,sink_4] 0
interdiction[sink_17,sink_8] 0
interdiction[sink_3,sink_23] 0
interdiction[sink_8,sink_20] 0
interdiction[sink_25,sink_20] 1
interdiction[sink_25,sink_15] 0
interdiction[sink_15,sink_29] 0
interdiction[sink_29,sink_28] 0
interdiction[sink_29,sink_2] 1
interdiction[sink_2,sink_15] 0
interdiction[sink_29,innode_7] 0
interdiction[innode_4,sink_19] 0
interdiction[sink_19,innode_3] 0
interdiction[innode_4,innode_5] 0
interdiction[sink_27,innode_5] 0
interdiction[sink_27,sink_19] 0
interdiction[sink_10,sink_11] 0
interdiction[sink_10,innode_2] 0
interdiction[sink_10,innode_3] 0
interdiction[innode_6,sink_25] 0
interdiction[sink_11,innode_1] 0
interdiction[sink_19,innode_2] 1
interdiction[source_3,innode_4] 0
interdiction[source_2,innode_7] 0
interdiction[sink_3,innode_8] 0
WCcheckFlow[source_1,sink_3] 39
WCcheckFlow[innode_1,sink_16] 1
WCcheckFlow[innode_6,sink_13] 13
WCcheckFlow[sink_13,sink_14] 12
WCcheckFlow[sink_14,sink_10] 11
WCcheckFlow[sink_25,sink_26] 15
WCcheckFlow[sink_26,sink_9] 12
WCcheckFlow[sink_9,sink_18] 11
WCcheckFlow[sink_26,sink_4] 2
WCcheckFlow[sink_4,sink_20] 1
WCcheckFlow[sink_18,sink_6] 10
WCcheckFlow[sink_25,innode_8] -36
WCcheckFlow[sink_6,sink_7] 7
WCcheckFlow[sink_6,sink_22] 2
WCcheckFlow[sink_7,sink_24] 3
WCcheckFlow[sink_22,sink_1] 1
WCcheckFlow[sink_24,sink_21] 2
WCcheckFlow[sink_21,sink_12] 1
WCcheckFlow[sink_7,sink_5] 3
WCcheckFlow[sink_5,sink_17] 2
WCcheckFlow[sink_17,sink_4] 0
WCcheckFlow[sink_17,sink_8] 1
WCcheckFlow[sink_3,sink_23] 1
WCcheckFlow[sink_8,sink_20] 0
WCcheckFlow[sink_25,sink_20] 0
WCcheckFlow[sink_25,sink_15] 6
WCcheckFlow[sink_15,sink_29] 4
WCcheckFlow[sink_29,sink_28] 1
WCcheckFlow[sink_29,sink_2] 0
WCcheckFlow[sink_2,sink_15] -1
WCcheckFlow[sink_29,innode_7] 2
WCcheckFlow[innode_4,sink_19] -4
WCcheckFlow[sink_19,innode_3] -5
WCcheckFlow[innode_4,innode_5] 2
WCcheckFlow[sink_27,innode_5] -1
WCcheckFlow[sink_27,sink_19] 0
WCcheckFlow[sink_10,sink_11] 3
WCcheckFlow[sink_10,innode_2] 1
WCcheckFlow[sink_10,innode_3] 6
WCcheckFlow[innode_6,sink_25] -14
WCcheckFlow[sink_11,innode_1] 2
WCcheckFlow[sink_19,innode_2] 0
WCcheckFlow[source_3,innode_4] -1
WCcheckFlow[source_2,innode_7] -1
WCcheckFlow[sink_3,innode_8] 37
